[[10, 58, 72, 12, 40, 9, 39, 31, 25, 55, 18, 50, 32, 44, 3], [24, 49, 16, 63, 23, 56, 43, 41, 42, 64, 22, 61, 28], [62, 73, 33, 6, 51, 17, 26, 76, 75, 4, 68, 2, 30, 74, 48], [21, 47, 36, 69, 71, 60, 70, 20, 37, 5, 15, 57, 29, 45, 27, 13], [54, 52, 34, 67, 46, 8, 7, 35, 19, 53, 14, 59, 66, 11, 38, 65]]